
Welcome to IBM(R) ILOG(R) CPLEX(R) Interactive Optimizer 22.1.1.0
  with Simplex, Mixed Integer & Barrier Optimizers
5725-A06 5725-A29 5724-Y48 5724-Y49 5724-Y54 5724-Y55 5655-Y21
Copyright IBM Corp. 1988, 2022.  All Rights Reserved.

Type 'help' for a list of available commands.
Type 'help' followed by a command name for more
information on commands.

CPLEX> Selected objective sense:  MINIMIZE
Selected objective  name:  00000000
Selected RHS        name:  RHS1
Selected bound      name:  BOUND
Problem 'ee.mps' read.
Read time = 0.03 sec. (3.17 ticks)
CPLEX> New value for time limit in seconds: 7200
CPLEX> New value for parallel optimization mode: -1
CPLEX> New value for default parallel thread count: 40
CPLEX> New value for mixed integer optimality gap tolerance: 1e-13
CPLEX> Version identifier: 22.1.1.0 | 2022-11-28 | 9160aff4d
CPXPARAM_Threads                                 40
CPXPARAM_Parallel                                -1
CPXPARAM_TimeLimit                               7200
CPXPARAM_MIP_Tolerances_MIPGap                   1e-13
Found incumbent of value 0.000000 after 0.00 sec. (0.31 ticks)
Tried aggregator 2 times.
MIP Presolve eliminated 521 rows and 3608 columns.
MIP Presolve modified 5892 coefficients.
Aggregator did 785 substitutions.
Reduced MIP has 3227 rows, 6911 columns, and 25414 nonzeros.
Reduced MIP has 6911 binaries, 0 generals, 0 SOSs, and 0 indicators.
Presolve time = 0.06 sec. (67.73 ticks)
Probing time = 0.03 sec. (5.16 ticks)
Tried aggregator 1 time.
Detecting symmetries...
Reduced MIP has 3227 rows, 6911 columns, and 25414 nonzeros.
Reduced MIP has 6911 binaries, 0 generals, 0 SOSs, and 0 indicators.
Presolve time = 0.02 sec. (19.33 ticks)
Probing time = 0.02 sec. (4.99 ticks)
Clique table members: 16525.
MIP emphasis: balance optimality and feasibility.
MIP search method: dynamic search.
Parallel mode: opportunistic, using up to 40 threads.
Root relaxation solution time = 0.06 sec. (51.21 ticks)

        Nodes                                         Cuts/
   Node  Left     Objective  IInf  Best Integer    Best Bound    ItCnt     Gap

*     0+    0                            0.0000  -1.54000e+13              --- 
*     0+    0                      -7.20000e+12  -1.54000e+13           113.89%
*     0+    0                      -8.40000e+12  -1.54000e+13            83.33%
      0     0  -1.53900e+13    78  -8.40000e+12  -1.53900e+13     1657   83.21%
*     0+    0                      -1.53900e+13  -1.53900e+13             0.00%
      0     0  -1.53900e+13   172  -1.53900e+13      Cuts: 80     2550    0.00%
      0     0  -1.53900e+13   234  -1.53900e+13     Cuts: 114     2850    0.00%
*     0+    0                      -1.53900e+13  -1.53900e+13             0.00%
*     0+    0                      -1.53900e+13  -1.53900e+13             0.00%
      0     2  -1.53900e+13   220  -1.53900e+13  -1.53900e+13     2850    0.00%
Elapsed time = 1.71 sec. (1025.12 ticks, tree = 0.02 MB, solutions = 6)
    473    77        cutoff        -1.53900e+13  -1.53900e+13    25175    0.00%
   1035   129  -1.53900e+13   125  -1.53900e+13  -1.53900e+13    76979    0.00%
   1916   451  -1.53900e+13   219  -1.53900e+13  -1.53900e+13   136163    0.00%
   2695   186  -1.53900e+13   121  -1.53900e+13  -1.53900e+13    88350    0.00%
   3470   426  -1.53900e+13    97  -1.53900e+13  -1.53900e+13   126836    0.00%
   4317   631        cutoff        -1.53900e+13  -1.53900e+13   162522    0.00%
   5264  1396  -1.53900e+13    63  -1.53900e+13  -1.53900e+13   288062    0.00%
   6216  1050  -1.53900e+13   172  -1.53900e+13  -1.53900e+13   233793    0.00%
   7218  1749  -1.53900e+13   171  -1.53900e+13  -1.53900e+13   336914    0.00%
   9916  2287  -1.53900e+13   199  -1.53900e+13  -1.53900e+13   410054    0.00%
Elapsed time = 7.63 sec. (4127.57 ticks, tree = 31.69 MB, solutions = 6)

Performing restart 1

Repeating presolve.
Tried aggregator 3 times.
MIP Presolve eliminated 122 rows and 564 columns.
MIP Presolve modified 1425 coefficients.
Aggregator did 137 substitutions.
Reduced MIP has 2944 rows, 6185 columns, and 22584 nonzeros.
Reduced MIP has 6185 binaries, 0 generals, 0 SOSs, and 0 indicators.
Presolve time = 0.05 sec. (57.59 ticks)
Tried aggregator 2 times.
MIP Presolve eliminated 5 rows and 15 columns.
Aggregator did 5 substitutions.
Reduced MIP has 2934 rows, 6163 columns, and 22510 nonzeros.
Reduced MIP has 6163 binaries, 0 generals, 0 SOSs, and 0 indicators.
Presolve time = 0.04 sec. (35.39 ticks)
Represolve time = 0.23 sec. (140.84 ticks)
  10513     0  -1.53900e+13   339  -1.53900e+13      Cuts: 53   647453    0.00%
  10513     0  -1.53900e+13   281  -1.53900e+13      Cuts: 52   647591    0.00%
  10513     0  -1.53900e+13   328  -1.53900e+13      Cuts: 53   647976    0.00%
  10513     0  -1.53900e+13   302  -1.53900e+13      Cuts: 43   648118    0.00%
  10513     0  -1.53900e+13   284  -1.53900e+13      Cuts: 55   648188    0.00%
  10513     0  -1.53900e+13   331  -1.53900e+13      Cuts: 21   648257    0.00%
  10513     0  -1.53900e+13   344  -1.53900e+13      Cuts: 31   648370    0.00%
  10513    39  -1.53900e+13   120  -1.53900e+13  -1.53900e+13   669457    0.00%
  12771    81  -1.53900e+13   143  -1.53900e+13  -1.53900e+13   674006    0.00%
* 14311   199      integral     0  -1.53900e+13  -1.53900e+13   775438    0.00%
  15427   306  -1.53900e+13   182  -1.53900e+13  -1.53900e+13   794024    0.00%
  17695   373        cutoff        -1.53900e+13  -1.53900e+13   898805    0.00%
  18607   369  -1.53900e+13    42  -1.53900e+13  -1.53900e+13   902277    0.00%

GUB cover cuts applied:  9
Clique cuts applied:  17
Cover cuts applied:  288
Mixed integer rounding cuts applied:  35
Zero-half cuts applied:  41
Lift and project cuts applied:  3
Gomory fractional cuts applied:  14

Root node processing (before b&c):
  Real time             =    1.12 sec. (1024.82 ticks)
Parallel b&c, 40 threads:
  Real time             =   16.86 sec. (10724.09 ticks)
  Sync time (average)   =    2.82 sec.
  Wait time (average)   =    0.08 sec.
                          ------------
Total (root+branch&cut) =   17.99 sec. (11748.92 ticks)

Solution pool: 28 solutions saved.

MIP - Integer optimal solution:  Objective = -1.5389997988e+13
Solution time =   18.09 sec.  Iterations = 979700  Nodes = 18749
Deterministic time = 11748.95 ticks  (649.42 ticks/sec)

CPLEX> Solution 'p29' written to file 'ee.sol'.
CPLEX> 